
Gurobi 6.5.2 (win64) logging started 07/22/16 22:04:34


Gurobi 6.5.2 (win64) logging started 07/22/16 22:04:34

Optimize a model with 4157 rows, 800 columns and 10284 nonzeros
Coefficient statistics:
  Matrix range    [6e-08, 4e+02]
  Objective range [1e+00, 1e+00]
  Bounds range    [1e+00, 1e+00]
  RHS range       [6e-06, 2e+03]
Presolve removed 3466 rows and 79 columns
Presolve time: 0.02s
Presolved: 691 rows, 721 columns, 3485 nonzeros
Variable types: 288 continuous, 433 integer (433 binary)

Root relaxation: objective 1.891452e+02, 2179 iterations, 0.09 seconds

    Nodes    |    Current Node    |     Objective Bounds      |     Work
 Expl Unexpl |  Obj  Depth IntInf | Incumbent    BestBd   Gap | It/Node Time

     0     0  189.14524    0  133          -  189.14524      -     -    0s
H    0     0                    1.335435e+07  189.14534   100%     -    0s
     0     0  192.13901    0  127 1.3354e+07  192.13901   100%     -    0s
H    0     0                     195.3980729  192.13901  1.67%     -    0s
     0     0  192.37733    0  126  195.39807  192.37733  1.55%     -    0s
H    0     0                     195.0445985  192.37733  1.37%     -    0s
     0     0  192.38286    0  121  195.04460  192.38286  1.36%     -    0s
H    0     0                     195.0002038  192.38286  1.34%     -    0s
H    0     0                     194.8071447  192.38286  1.24%     -    0s
     0     0  192.38900    0  124  194.80714  192.38900  1.24%     -    0s
H    0     0                     194.7371946  192.38900  1.21%     -    0s
     0     0  192.38912    0  124  194.73719  192.38912  1.21%     -    0s
     0     0  192.41258    0  126  194.73719  192.41258  1.19%     -    0s
     0     0  192.42590    0  125  194.73719  192.42590  1.19%     -    0s
     0     0  192.42590    0  107  194.73719  192.42590  1.19%     -    0s
     0     0  192.42590    0   93  194.73719  192.42590  1.19%     -    0s
     0     0  192.42590    0   99  194.73719  192.42590  1.19%     -    0s
H    0     0                     194.7371945  192.42590  1.19%     -    0s
     0     0  192.43670    0   99  194.73719  192.43670  1.18%     -    0s
     0     0  192.48153    0   98  194.73719  192.48153  1.16%     -    0s
     0     0  192.48458    0   95  194.73719  192.48458  1.16%     -    0s
     0     0  192.48632    0   95  194.73719  192.48632  1.16%     -    0s
H    0     0                     194.7146887  192.48632  1.14%     -    0s
     0     0  192.48632    0   85  194.71469  192.48632  1.14%     -    0s
     0     2  192.48632    0   85  194.71469  192.48632  1.14%     -    0s
H   70    32                     194.5955138  193.62291  0.50%  23.3    0s
H  105    28                     194.5450257  193.70046  0.43%  18.8    0s
*  208    19              20     194.4839095  193.70046  0.40%  14.2    0s
H  310    12                     194.4828170  194.28890  0.10%  12.5    0s
*  366     0              20     194.4582611  194.37442  0.04%  11.6    0s
H  462     0                     194.4470723  194.42777  0.01%  10.1    0s

Cutting planes:
  Gomory: 6
  MIR: 16

Explored 474 nodes (8407 simplex iterations) in 0.67 seconds
Thread count was 8 (of 8 available processors)

Optimal solution found (tolerance 1.00e-04)
Best objective 1.944470723463e+02, best bound 1.944356819453e+02, gap 0.0059%

Wrote requested result file 'H1\instance27\\Results27E_Sol6.lp'

